tsp_instances/TSP20/instance112.tsp
NODE_COORD_SECTION
0 112 16
1 178 181
2 52 71
3 54 155
4 34 96
5 126 67
6 135 95
7 91 57
8 149 6
9 5 28
10 139 9
11 174 119
12 188 140
13 198 178
14 57 166
15 170 139
16 85 160
17 72 130
18 58 163
19 84 44
