tsp_instances/TSP20/instance112.opt.tour
TOUR_SECTION
1
11
9
6
7
12
16
13
14
2
17
15
19
4
18
5
10
3
8
20
-1